certificates/rado_a15_c117_N40.cnf
c Rad2 upper bound instance: x1 + 15*x2 - x3 = 117, interval [1,40]
p cnf 40 214
1 4 8 0
-1 -4 -8 0
1 9 19 0
-1 -9 -19 0
1 10 34 0
-1 -10 -34 0
2 5 8 0
-2 -5 -8 0
2 9 20 0
-2 -9 -20 0
2 10 35 0
-2 -10 -35 0
3 6 8 0
-3 -6 -8 0
3 9 21 0
-3 -9 -21 0
3 10 36 0
-3 -10 -36 0
4 7 8 0
-4 -7 -8 0
4 9 22 0
-4 -9 -22 0
4 10 37 0
-4 -10 -37 0
5 8 0
-5 -8 0
5 9 23 0
-5 -9 -23 0
5 10 38 0
-5 -10 -38 0
6 8 9 0
-6 -8 -9 0
6 9 24 0
-6 -9 -24 0
6 10 39 0
-6 -10 -39 0
7 8 10 0
-7 -8 -10 0
7 9 25 0
-7 -9 -25 0
7 10 40 0
-7 -10 -40 0
8 11 0
-8 -11 0
8 9 26 0
-8 -9 -26 0
8 9 12 0
-8 -9 -12 0
9 27 0
-9 -27 0
8 10 13 0
-8 -10 -13 0
9 10 28 0
-9 -10 -28 0
8 11 14 0
-8 -11 -14 0
9 11 29 0
-9 -11 -29 0
8 12 15 0
-8 -12 -15 0
9 12 30 0
-9 -12 -30 0
1 7 13 0
-1 -7 -13 0
8 13 16 0
-8 -13 -16 0
9 13 31 0
-9 -13 -31 0
2 7 14 0
-2 -7 -14 0
8 14 17 0
-8 -14 -17 0
9 14 32 0
-9 -14 -32 0
3 7 15 0
-3 -7 -15 0
8 15 18 0
-8 -15 -18 0
9 15 33 0
-9 -15 -33 0
4 7 16 0
-4 -7 -16 0
8 16 19 0
-8 -16 -19 0
9 16 34 0
-9 -16 -34 0
5 7 17 0
-5 -7 -17 0
8 17 20 0
-8 -17 -20 0
9 17 35 0
-9 -17 -35 0
6 7 18 0
-6 -7 -18 0
8 18 21 0
-8 -18 -21 0
9 18 36 0
-9 -18 -36 0
7 19 0
-7 -19 0
8 19 22 0
-8 -19 -22 0
9 19 37 0
-9 -19 -37 0
7 8 20 0
-7 -8 -20 0
8 20 23 0
-8 -20 -23 0
9 20 38 0
-9 -20 -38 0
7 9 21 0
-7 -9 -21 0
8 21 24 0
-8 -21 -24 0
9 21 39 0
-9 -21 -39 0
7 10 22 0
-7 -10 -22 0
8 22 25 0
-8 -22 -25 0
9 22 40 0
-9 -22 -40 0
7 11 23 0
-7 -11 -23 0
8 23 26 0
-8 -23 -26 0
7 12 24 0
-7 -12 -24 0
8 24 27 0
-8 -24 -27 0
7 13 25 0
-7 -13 -25 0
8 25 28 0
-8 -25 -28 0
7 14 26 0
-7 -14 -26 0
8 26 29 0
-8 -26 -29 0
7 15 27 0
-7 -15 -27 0
8 27 30 0
-8 -27 -30 0
1 6 28 0
-1 -6 -28 0
7 16 28 0
-7 -16 -28 0
8 28 31 0
-8 -28 -31 0
2 6 29 0
-2 -6 -29 0
7 17 29 0
-7 -17 -29 0
8 29 32 0
-8 -29 -32 0
3 6 30 0
-3 -6 -30 0
7 18 30 0
-7 -18 -30 0
8 30 33 0
-8 -30 -33 0
4 6 31 0
-4 -6 -31 0
7 19 31 0
-7 -19 -31 0
8 31 34 0
-8 -31 -34 0
5 6 32 0
-5 -6 -32 0
7 20 32 0
-7 -20 -32 0
8 32 35 0
-8 -32 -35 0
6 33 0
-6 -33 0
7 21 33 0
-7 -21 -33 0
8 33 36 0
-8 -33 -36 0
6 7 34 0
-6 -7 -34 0
7 22 34 0
-7 -22 -34 0
8 34 37 0
-8 -34 -37 0
6 8 35 0
-6 -8 -35 0
7 23 35 0
-7 -23 -35 0
8 35 38 0
-8 -35 -38 0
6 9 36 0
-6 -9 -36 0
7 24 36 0
-7 -24 -36 0
8 36 39 0
-8 -36 -39 0
6 10 37 0
-6 -10 -37 0
7 25 37 0
-7 -25 -37 0
8 37 40 0
-8 -37 -40 0
6 11 38 0
-6 -11 -38 0
7 26 38 0
-7 -26 -38 0
6 12 39 0
-6 -12 -39 0
7 27 39 0
-7 -27 -39 0
6 13 40 0
-6 -13 -40 0
7 28 40 0
-7 -28 -40 0
