certificates/rado_a15_c117_N40.drat
8 -38 -40 0
-13 -8 -40 0
10 36 37 -8 0
-8 -39 -40 0
-10 -34 8 -39 0
37 -39 -40 0
10 8 -40 0
-39 -40 0
d -8 -39 -40 0
8 7 -40 0
7 -40 0
d 8 7 -40 0
-40 0
-8 10 0
d 36 37 -8 10 0
10 0
8 0
-5 0
-11 0
-13 0
-7 0
17 0
23 0
6 0
1 0
25 0
19 0
28 0
-20 0
-14 0
-26 0
-3 0
-9 0
-33 0
-35 0
-39 0
-37 0
0
